\Problem name: Ore Mixing Problem

Minimize
OBJROW: 1001 x_00 + 1001 x_10 + 1001 x_20 + 1001 x_30 + 1001 x_40 + 1001 x_50 + 1001 x_60 + 1001 x_70 + 1001 x_80 + 1001 x_90
 + y_00 + y_01 + y_02 + y_03 + y_04 + y_05 + y_06 + y_07 + y_08 + y_09
 + 285.71429 a_max_00 + 1000000000000 a_max_10 + 100000000000 a_max_20 + 100000000000 a_max_30 + 100000000000 a_max_40 + 100000000000 a_max_50 + 2000 a_min_00 + 333333.33333 a_min_10 + 41666.66667 a_min_20 + 5000000 a_min_30
 + 50000 a_min_40 + 20000 a_min_50 + 0.20000 b_max_00 + 1000000 b_max_10 + 1000000 b_max_20 + 1000000 b_max_30 + 1000000 b_max_40 + 1000000 b_max_50 + 0.20000 b_min_00 + 1000000 b_min_10
 + 1000000 b_min_20 + 1000000 b_min_30 + 1000000 b_min_40 + 1000000 b_min_50
Subject To
input_weight_constr_0:  y_00 + y_01 + y_02 + y_03 + y_04 + y_05 + y_06 + y_07 + y_08 + y_09
 <= -0
capacity_constr_0:  y_00 <= 40000
weight_constr_00:  x_00 - y_00 <= 60000
capacity_constr_1:  y_01 <= 5000
weight_constr_10:  x_10 - y_01 <= 45000
capacity_constr_2:  y_02 <= -0
weight_constr_20:  x_20 - y_02 <= 100000
capacity_constr_3:  y_03 <= 150000
weight_constr_30:  x_30 - y_03 <= 50000
capacity_constr_4:  y_04 <= 60000
weight_constr_40:  x_40 - y_04 <= 60000
capacity_constr_5:  y_05 <= 75000
weight_constr_50:  x_50 - y_05 <= 75000
capacity_constr_6:  y_06 <= 40000
weight_constr_60:  x_60 - y_06 <= 40000
capacity_constr_7:  y_07 <= 45000
weight_constr_70:  x_70 - y_07 <= 45000
capacity_constr_8:  y_08 <= 50000
weight_constr_80:  x_80 - y_08 <= 50000
capacity_constr_9:  y_09 <= 55000
weight_constr_90:  x_90 - y_09 <= 55000
demand_constr_0:  x_00 + x_10 + x_20 + x_30 + x_40 + x_50 + x_60 + x_70 + x_80 + x_90
 = 500000
min_quality_constr_00:  -49.70000 x_00 + 16.30000 x_10 + 27.30000 x_20 -3.70000 x_30 + 10.50000 x_40 + 5.40000 x_50 + 15 x_60 + 0.30000 x_70 + 8.30000 x_80 + 12.10000 x_90
 + 500000 a_min_00 >= -0
max_quality_constr_00:  -89.70000 x_00 -23.70000 x_10 -12.70000 x_20 -43.70000 x_30 -29.50000 x_40 -34.60000 x_50 -25 x_60 -39.70000 x_70 -31.70000 x_80 -27.90000 x_90
 -500000 a_max_00 <= -0
goal_quality_constr_00:  -54.70000 x_00 + 11.30000 x_10 + 22.30000 x_20 -8.70000 x_30 + 5.50000 x_40 + 0.40000 x_50 + 10 x_60 -4.70000 x_70 + 3.30000 x_80 + 7.10000 x_90
 -500000 b_max_00 + 500000 b_min_00 = -0
min_quality_constr_10:  -0.50000 x_00 + 2.80000 x_10 + 0.90000 x_20 + x_30 + 1.20000 x_40 + 1.70000 x_50 + 1.50000 x_60 + 2.70000 x_70 + 0.40000 x_80 + 0.70000 x_90
 + 500000 a_min_10 >= -0
max_quality_constr_10:  -3.50000 x_00 -0.20000 x_10 -2.10000 x_20 -2 x_30 -1.80000 x_40 -1.30000 x_50 -1.50000 x_60 -0.30000 x_70 -2.60000 x_80 -2.30000 x_90
 -500000 a_max_10 <= -0
goal_quality_constr_10:  -3.50000 x_00 -0.20000 x_10 -2.10000 x_20 -2 x_30 -1.80000 x_40 -1.30000 x_50 -1.50000 x_60 -0.30000 x_70 -2.60000 x_80 -2.30000 x_90
 -500000 b_max_10 + 500000 b_min_10 = -0
min_quality_constr_20:  2 x_00 + 2.30000 x_10 + 2.50000 x_20 + 2.80000 x_30 + 2.60000 x_40 + 2.40000 x_50 + 2.50000 x_60 + 2.20000 x_70 + 2.30000 x_80 + 2.70000 x_90
 + 500000 a_min_20 >= -0
max_quality_constr_20:  -0.40000 x_00 -0.10000 x_10 + 0.10000 x_20 + 0.40000 x_30 + 0.20000 x_40 + 0.10000 x_60 -0.20000 x_70 -0.10000 x_80 + 0.30000 x_90 -500000 a_max_20
 <= -0
goal_quality_constr_20:  -0.40000 x_00 -0.10000 x_10 + 0.10000 x_20 + 0.40000 x_30 + 0.20000 x_40 + 0.10000 x_60 -0.20000 x_70 -0.10000 x_80 + 0.30000 x_90 -500000 b_max_20
 + 500000 b_min_20 = -0
min_quality_constr_30:  0.04000 x_30 + 0.02000 x_40 + 0.01000 x_50 + 0.03000 x_60 + 0.01000 x_70 + 0.02000 x_80 + 0.04000 x_90 + 500000 a_min_30 >= -0
max_quality_constr_30:  -0.02000 x_00 -0.02000 x_10 -0.02000 x_20 + 0.02000 x_30 -0.01000 x_50 + 0.01000 x_60 -0.01000 x_70 + 0.02000 x_90 -500000 a_max_30 <= -0
goal_quality_constr_30:  -0.02000 x_00 -0.02000 x_10 -0.02000 x_20 + 0.02000 x_30 -0.01000 x_50 + 0.01000 x_60 -0.01000 x_70 + 0.02000 x_90 -500000 b_max_30 + 500000 b_min_30
 = -0
min_quality_constr_40:  -4 x_00 + 0.50000 x_20 + 4 x_30 + 2 x_40 + x_50 - x_60 + 3 x_70 + x_80 + 500000 a_min_40 >= -0
max_quality_constr_40:  -6 x_00 -2 x_10 -1.50000 x_20 + 2 x_30 - x_50 -3 x_60 + x_70 - x_80 -2 x_90 -500000 a_max_40
 <= -0
goal_quality_constr_40:  -6 x_00 -2 x_10 -1.50000 x_20 + 2 x_30 - x_50 -3 x_60 + x_70 - x_80 -2 x_90 -500000 b_max_40
 + 500000 b_min_40 = -0
min_quality_constr_50:  20 x_00 -5 x_20 + 10 x_30 + 5 x_40 + 8 x_50 + 2 x_70 + x_80 - x_90 + 500000 a_min_50 >= -0
max_quality_constr_50:  15 x_00 -5 x_10 -10 x_20 + 5 x_30 + 3 x_50 -5 x_60 -3 x_70 -4 x_80 -6 x_90 -500000 a_max_50
 <= -0
goal_quality_constr_50:  15 x_00 -5 x_10 -10 x_20 + 5 x_30 + 3 x_50 -5 x_60 -3 x_70 -4 x_80 -6 x_90 -500000 b_max_50
 + 500000 b_min_50 = -0
Bounds
End
